p cnf 29 71
a 2 7 0
e 1 3 4 5 6 8 9 10 11 12 13 14 15 16 17 18 19 20 21 22 23 24 25 26 27 28 29 0
2 -1 -3 0
-2 1 -3 0
2 1 3 0
-2 -1 3 0
-4 1 0
-4 -3 0
-1 3 4 0
7 -5 0
7 -6 0
5 6 -7 0
-7 8 -9 0
7 -8 -9 0
-7 -8 9 0
7 8 9 0
-4 9 -10 0
4 -9 -10 0
-4 -9 10 0
4 9 10 0
-12 5 0
-12 11 0
-5 -11 12 0
12 -13 -14 0
-12 13 -14 0
12 13 14 0
-12 -13 14 0
13 -11 -15 0
-13 11 -15 0
13 11 15 0
-13 -11 15 0
-17 -12 0
-17 16 0
12 -16 17 0
18 -15 0
18 -17 0
15 17 -18 0
13 1 -19 0
-13 -1 -19 0
13 -1 19 0
-13 1 19 0
21 19 0
21 20 0
-19 -20 -21 0
22 -18 0
22 -21 0
18 21 -22 0
14 -22 -23 0
-14 22 -23 0
14 22 23 0
-14 -22 23 0
-24 -10 0
-24 -23 0
10 23 24 0
-26 -25 0
-26 -13 0
25 13 26 0
-27 12 0
-27 -7 0
-12 7 27 0
-28 -26 0
-28 -27 0
26 27 28 0
29 24 0
29 28 0
-24 -28 -29 0
10 -16 -7 0
3 -27 15 0
-27 -23 20 -19 3 -12 26 29 0
-23 -20 7 1 -8 19 0
-28 11 -29 27 -5 12 0
18 -7 -26 -1 -21 -14 -22 0
29 0
